p cnf 32 75
-1 21 18 0
1 -21 0
1 -18 0
-2 22 17 19 0
2 -22 0
2 -17 0
2 -19 0
-3 23 18 20 0
3 -23 0
3 -18 0
3 -20 0
-4 24 19 0
4 -24 0
4 -19 0
-5 17 25 22 0
5 -17 0
5 -25 0
5 -22 0
-6 18 26 21 23 0
6 -18 0
6 -26 0
6 -21 0
6 -23 0
-7 19 27 22 24 0
7 -19 0
7 -27 0
7 -22 0
7 -24 0
-8 20 28 23 0
8 -20 0
8 -28 0
8 -23 0
-9 21 29 26 0
9 -21 0
9 -29 0
9 -26 0
-10 22 30 25 27 0
10 -22 0
10 -30 0
10 -25 0
10 -27 0
-11 23 31 26 28 0
11 -23 0
11 -31 0
11 -26 0
11 -28 0
-12 24 32 27 0
12 -24 0
12 -32 0
12 -27 0
-13 25 30 0
13 -25 0
13 -30 0
-14 26 29 31 0
14 -26 0
14 -29 0
14 -31 0
-15 27 30 32 0
15 -27 0
15 -30 0
15 -32 0
-16 28 31 0
16 -28 0
16 -31 0
-1 0
5 0
-2 0
-6 0
10 0
-7 0
-3 0
-4 0
-8 0
-12 0
32 0
